ObjectiveValue = 4629.7;
flow=[(1,6,4)(5,0,0)(5,1,2)(5,2,0)(5,4,0)(5,6,22)(5,7,0)(5,8,0)(5,9,0)(5,10,0)(5,11,0)(5,12,0)(5,13,0)(6,1,6)(6,5,2)(6,7,9)(6,10,4)(6,11,32)(8,9,5)(10,6,6)(11,6,15)(11,9,1)(11,10,3)(11,12,13)(12,5,5)(12,6,32)(12,7,3)(12,10,8)(12,13,1)];
